17	4
13	17	19	14	
0	0	0	0	0	3	2	3	4	
10	8	0	4	4	3	5	17	17	
8	6	3	0	7	3	6	9	10	
8	7	3	3	8	1	17	
4	7	1	6	10	2	7	17	
75	6	2	0	10	3	8	11	15	
75	0	1	0	3	1	13	
50	8	3	5	8	1	17	
50	8	2	1	2	3	17	17	17	
100	0	8	10	0	3	12	14	17	
250	0	1	10	0	1	17	
225	0	4	5	0	2	16	17	
10	3	0	4	8	2	17	17	
9	4	6	9	3	2	17	17	
10	0	10	7	0	1	17	
5	6	0	5	0	1	17	
0	0	0	0	0	0	
